Optimal - objective value 25.00000000
     13 x_0_14                  1                       0
     38 x_2_8                   1                       1
     43 x_2_13                  1                       3
     49 x_3_5                   1                       2
     61 x_3_17                  1                       1
     67 x_4_10                  1                       3
     71 x_4_14                  1                       1
    111 x_8_12                  1                       3
    114 x_8_15                  1                       1
    116 x_8_17                  1                       2
    129 x_10_15                 1                       2
    148 x_14_16                 1                       3
    179 f_0_14                 10                    -0.2
    229 f_2_8                   4                       0
    230 f_8_2                   6                       0
    239 f_2_13                5.5                       0
    240 f_13_2                4.5                       0
    251 f_3_5                 5.5                       0
    252 f_5_3                 4.5                       0
    276 f_17_3                  2                       0
    287 f_4_10                  9                       0
    288 f_10_4                  1                       0
    295 f_4_14                0.5                       0
    296 f_14_4                9.5                       0
    375 f_8_12                5.5                       0
    376 f_12_8                4.5                       0
    381 f_8_15                  2                       0
    382 f_15_8                  8                       0
    385 f_8_17                6.5                       0
    386 f_17_8                3.5                       0
    411 f_10_15               8.5                       0
    412 f_15_10               1.5                       0
    449 f_14_16               5.5                       0
    450 f_16_14               4.5                       0
